     30      2      9    518     10
     52     40
     11     24      3      9     14     21      6     13      3     20     11      3     21     19     16     15     12      2      4     13     10     21     28      7     29      6      5     19     23     27     23      7     14     22     25     11      5      8     23     24     26      5     24     13     11     19     17      0     19      9     16     22     20      8     12      8     22     25     16      3     23     17     18      6     24      2      1     18     19     13     16      4     24      6     19      8      7     19     22     14     19     18     21     24      4      8     17     27      9      5     21     14      9      2     17     12      9     24      1     15     26     28      8     21      1     29     17     16     14     18     13     29      4      5     17     15     16     19     23      6
     11     87     -5     70     25      4    -11     11     86     15    -20     95     15     54     17     37      6     94     46     17     63     83     -5     22     19     14     20     31     10    -19
      2     10     14	    333     72      5      5      5      0     32      0     74    122      0      0      0      0      0      0    146    192      0      0      0     76      0      0      0      0      0      0      0    118     97      0    131      0      0
      2     12     12	    120     60      5      8      2     32      0      0      0      0      0      0      0      0      0      0      0      0      0     35      0      0      0      0      0      0      0      0      0      0      0      0      0      0      0
      3     11     15	    230    148      6      7      2      0      0      0      0      0    161      0      0      0    184      0      0      0      0     18      0      0      0    100      0      0      0      0      0      0      0      0      0      0      0
      4     15     11	    395    130      9      9      8     74      0      0      0      0      0      0     72      0      0      0    144      0      0      0    272      0      0      0      0      0      0      0      0      0    103    252      0      0     36
      6     15     14	    329    174      7      8      9    122      0      0      0      0      0      0      0      0      0      0      0      0      0      0    222      0      0      0      0      0      0      0      0      0      0      0     16      0      0
      5     12     13	    277    187      5      5      5      0      0    161      0      0      0      0      0      0      0      0      0      0      0      0      0      0      0      0      0     -2      0      0     85      0      3      0      0      0      0
      5     12     14	    190    133      6      9      8      0      0      0      0      0      0      0      0      0      0      0      0      0      0      0      0      0     90      0      0      0      0      0      0      0      0      0      0      0      0
      4     14     14	    469    114      8      9      7      0      0      0     72      0      0      0      0      0      0      0      0    147    157      0    253      0      0      0      0      0      0      0    144      0      0      0      0     15      0
      2     11     12	    394    132      7      9      9      0      0      0      0      0      0      0      0      0     67      0    -21      0      0      0      0      0      0    110    -20      0      0    225     58      0     87      0    -18      0      0
      2     15     15	    277    161      3      9      3      0      0    184      0      0      0      0      0     67      0      0      0      0      0      0      0      0      0      0      0      0      0      0      0      0      0      0      0     19      0
      1     14     10	    357    177      5      6      6      0      0      0      0      0      0      0      0      0      0      0      0      0      0      0      0      0    129      0      5      0     97      0      0     47    -32    -63      0      0    242
      2     10     15	    226    158      7      9      3    146      0      0    144      0      0      0      0    -21      0      0      0      0    151      0      5     89     47      0      0    123    152      0      0      0      0      0      0     11      0
      4     15     14	    427    202      6      8      2    192      0      0      0      0      0      0    147      0      0      0      0      0      0      0      0      0      0      0      0      0      0    224      0      0      0      0      0     63      0
      2     12     12	    348     61      5      9      2      0      0      0      0      0      0      0    157      0      0      0    151      0      0      0      0    -64      0     63      0     18      0      0      0      0      0      0      0      0    253
      1     15     15	    106     65      4      7      4      0     35     18      0      0      0      0      0      0      0      0      0      0      0      0     45      0      0      0      0    -15      0      0      0      0      0      0      0      0      0
      4     15     15	    419    128      9      9      4      0      0      0    272    222      0      0    253      0      0      0      5      0      0     45      0      0      0    135      0      0    179      0      0      0      0      0      0      0      0
      5     12     13	    499    242      9      9      7     76      0      0      0      0      0      0      0      0      0      0     89      0    -64      0      0      0    -34      0      0      0      0      0     36      0     56      0      0      0      0
      5     12     15	    432    146      6      9      2      0      0      0      0      0      0     90      0      0      0    129     47      0      0      0      0    -34      0    164      0      0    179      0    241      0      0      0      0      0      0
      6     13     12	    251    171      6      7      2      0      0    100      0      0      0      0      0    110      0      0      0      0     63      0    135      0    164      0      0      0      0      0     98    143    100      0      0      0      0
      5     13     10	    103     50      9      9      3      0      0      0      0      0      0      0      0    -20      0      5      0      0      0      0      0      0      0      0      0      0      0      0      0      0      0      0      0      0      0
      3     12     15	    225    152      9      9      3      0      0      0      0      0     -2      0      0      0      0      0    123      0     18    -15      0      0      0      0      0      0      0      0      0     14      0      0      0    173      0
      3     11     11	    224     96      8      8      9      0      0      0      0      0      0      0      0      0      0     97    152      0      0      0    179      0    179      0      0      0      0      0      0      0      0     13      0      0      0
      3     15     13	    284    100      4      4      9      0      0      0      0      0      0      0      0    225      0      0      0    224      0      0      0      0      0      0      0      0      0      0    216      0      0      0     58      0    191
      3     15     14	    474    301      5      7      1      0      0      0      0      0     85      0    144     58      0      0      0      0      0      0      0     36    241     98      0      0      0    216      0      0    120    -15      0      0      0
      1     15     10	    193    133      5      6      5    118      0      0      0      0      0      0      0      0      0     47      0      0      0      0      0      0      0    143      0     14      0      0      0      0      0      0      0      0      0
      5     14     15	    197    122      6      8     10     97      0      0    103      0      3      0      0     87      0    -32      0      0      0      0      0     56      0    100      0      0      0      0    120      0      0      0      0      0     -2
      1     11     13	    320    192      4      7      1      0      0      0    252      0      0      0      0      0      0    -63      0      0      0      0      0      0      0      0      0      0     13      0    -15      0      0      0      0      0      0
      3     11     13	    190     62      3      8      2    131      0      0      0     16      0      0      0    -18      0      0      0      0      0      0      0      0      0      0      0      0      0     58      0      0      0      0      0      0      0
      1     12     14	    279    122      1      2      1      0      0      0      0      0      0      0     15      0     19      0     11     63      0      0      0      0      0      0      0    173      0      0      0      0      0      0      0      0    183
      2     10     13	    472    225      4      6      3      0      0      0     36      0      0      0      0      0      0    242      0      0    253      0      0      0      0      0      0      0      0    191      0      0     -2      0      0    183      0